NAME : case_8
TYPE : CVRP
DIMENSION : 20
EDGE_WEIGHT_TYPE : EUC_2D
CAPACITY : 20
NODE_COORD_SECTION
1	56	666
2	41	367
3	336	44
4	792	917
5	781	849
6	559	746
7	897	431
8	99	1000
9	534	906
10	65	804
11	565	82
12	365	89
13	2	239
14	842	559
15	756	147
16	282	213
17	874	740
18	986	414
19	480	579
20	83	489
DEMAND_SECTION
1	2
2	5
3	8
4	8
5	10
6	7
7	3
8	6
9	9
10	5
11	2
12	10
13	4
14	9
15	2
16	6
17	1
18	6
19	1
20	1
DEPOT_SECTION
1
-1
EOF
VEHICLE : 10
